1	2	1	1	4	10	0	0	0	0	0	0
2000	1	0	0	0	0	0	0	0	0	0	0
250	1	0	78.63	0.49	1	0	0	0	0	0	0
250     1       0       78.63   0.49    1       0       0       0       0       0       0
50	150	0	0	0	0	1000	0	0	99999	0	0
50	75	0	0	0	0	1000	0	0	99999	0	0
50	75	0	0	0	0	1000	0	0	0	0	0
28	62	0	0	0	0	1000	0	0	0	0	0
21	22	0	0	0	0	1000	0	0	0	0	0
34	16	0	0	0	0	1000	0	0	0	0	0
53	43	14	11	3	202	340	10	0	0	0	0
47	47	13	13	0	623	715	10	0	0	0	0
20	40	12	6	6	519	629	10	0	0	0	0
41	37	16	14	2	473	611	10	0	0	0	0
35	69	23	12	11	617	737	10	0	0	0	0
31	52	27	16	11	707	925	10	0	0	0	0
11	31	7	2	5	430	564	10	0	0	0	0
47	16	25	9	16	220	368	10	0	0	0	0
26	27	27	26	1	650	758	10	0	0	0	0
18	18	17	17	0	234	264	10	0	0	0	0
